RAW/CMTT/fspd-mid/CMT9T.vrp_seed-8.out
1162.547044	55.044	168.48
