RAW/CMTT/fspd-mid/CMT9T.vrp_seed-8.sol
Route #1: 109 143 135 111 66 41 94 19 141 148 87 142
Route #2: 81 60 8 140 82 31 28 80 120 1 119 32
Route #3: 38 62 9 34 74 75 105 30 104 49 76
Route #4: 26 113 114 99 43 86 97 98
Route #5: 55 134 67 13 136 40 88 64 150 145
Route #6: 77 27 138 48 112 61 7 69 23 57 6 102
Route #7: 46 139 47 56 146 149 4 144 12
Route #8: 51 22 70 116 59 20 131 83 2 100
Route #9: 108 52 15 45 91 72 33 124 123 71 90 103
Route #10: 37 137 44 107 65 93 42 92 147 17 63
Route #11: 122 125 106 73 117 89 39 54 10 5
Route #12: 11 126 16 127 53 129 29 79 21 118 50 130 78
Route #13: 18 110 133 14 58 25 95 96 24 132 68
Route #14: 128 84 35 85 36 115 121 3 101
Cost 1162.547044